nbGenes = 40;
preference = [[0 11 7 8 7 8 6 8 9 7 6 9 9 9 8 7 9 11 7 7 12 3 8 5 8 5 8 4 10 7 7 9 9 7 9 10 8 8 7 8 ]
[9 0 5 7 7 9 9 5 10 9 7 7 7 9 7 6 8 11 7 9 12 6 9 7 8 7 8 4 10 6 6 9 6 5 7 10 9 12 5 9 ]
[13 15 0 10 11 15 9 10 15 15 12 13 13 12 15 11 11 15 10 14 15 11 13 11 10 10 13 9 14 11 11 11 16 9 12 12 11 13 12 13 ]
[12 13 10 0 10 11 10 9 13 13 11 10 11 10 7 11 12 14 11 11 14 10 10 11 12 9 10 7 10 10 11 10 13 8 11 10 13 9 10 9 ]
[13 13 9 10 0 12 9 8 12 12 9 10 11 11 10 12 12 14 12 13 14 7 10 13 11 10 12 7 12 10 9 13 13 8 10 11 13 9 11 10 ]
[12 11 5 9 8 0 6 5 9 9 7 7 7 8 7 11 10 14 5 9 10 8 9 8 11 7 9 4 11 8 9 9 10 6 8 7 9 7 11 8 ]
[14 11 11 10 11 14 0 8 12 12 9 11 11 12 10 9 11 14 9 12 12 8 9 9 12 10 11 8 12 7 10 12 12 9 11 10 10 12 10 9 ]
[12 15 10 11 12 15 12 0 12 12 11 11 12 13 12 13 11 14 9 14 14 8 10 9 13 11 11 10 13 8 10 13 13 10 13 9 11 13 11 9 ]
[11 10 5 7 8 11 8 8 0 9 8 9 9 9 10 6 7 12 8 9 10 6 6 9 7 6 10 5 11 6 7 9 8 8 8 6 9 8 9 10 ]
[13 11 5 7 8 11 8 8 11 0 9 12 9 9 12 6 10 13 5 10 13 10 8 9 12 6 9 6 12 11 11 9 10 6 11 9 8 9 8 10 ]
[14 13 8 9 11 13 11 9 12 11 0 12 11 12 11 11 11 14 10 12 12 9 8 12 11 9 13 6 12 10 11 12 11 6 14 9 10 9 12 12 ]
[11 13 7 10 10 13 9 9 11 8 8 0 13 10 11 10 10 13 9 12 13 9 9 11 11 7 10 7 13 8 11 12 11 7 11 11 12 10 8 12 ]
[11 13 7 9 9 13 9 8 11 11 9 7 0 11 10 8 10 13 8 11 11 7 8 8 11 8 9 6 13 6 9 11 10 6 9 9 12 11 7 10 ]
[11 11 8 10 9 12 8 7 11 11 8 10 9 0 11 8 14 12 10 11 11 7 10 8 9 7 11 6 10 7 9 10 12 9 8 11 11 11 8 11 ]
[12 13 5 13 10 13 10 8 10 8 9 9 10 9 0 8 11 13 8 10 12 9 11 7 10 7 10 6 14 10 9 8 10 9 10 12 10 11 11 10 ]
[13 14 9 9 8 9 11 7 14 14 9 10 12 12 12 0 13 13 9 10 12 11 7 12 13 7 12 10 12 11 13 13 13 7 11 10 12 11 11 13 ]
[11 12 9 8 8 10 9 9 13 10 9 10 10 6 9 7 0 13 7 12 13 9 9 7 9 7 9 7 11 8 9 13 13 6 10 13 13 11 9 12 ]
[9 9 5 6 6 6 6 6 8 7 6 7 7 8 7 7 7 0 6 7 9 7 5 6 7 6 7 5 9 7 6 8 7 5 6 7 8 7 6 10 ]
[13 13 10 9 8 15 11 11 12 15 10 11 12 10 12 11 13 14 0 12 14 9 11 10 12 9 12 7 11 8 12 12 14 7 10 10 11 12 11 11 ]
[13 11 6 9 7 11 8 6 11 10 8 8 9 9 10 10 8 13 8 0 10 7 7 8 9 6 9 4 7 9 8 9 9 5 10 8 10 7 12 10 ]
[8 8 5 6 6 10 8 6 10 7 8 7 9 9 8 8 7 11 6 10 0 7 8 9 7 6 8 4 9 5 8 8 6 5 7 8 7 8 8 10 ]
[17 14 9 10 13 12 12 12 14 10 11 11 13 13 11 9 11 13 11 13 13 0 11 10 13 12 10 8 12 10 12 14 13 10 13 12 15 13 8 14 ]
[12 11 7 10 10 11 11 10 14 12 12 11 12 10 9 13 11 15 9 13 12 9 0 13 9 9 10 7 9 8 10 12 12 6 11 12 16 11 12 12 ]
[15 13 9 9 7 12 11 11 11 11 8 9 12 12 13 8 13 14 10 12 11 10 7 0 11 8 11 9 12 8 9 13 12 8 12 10 9 11 11 13 ]
[12 12 10 8 9 9 8 7 13 8 9 9 9 11 10 7 11 13 8 11 13 7 11 9 0 8 10 7 12 7 8 9 11 10 11 13 12 10 9 11 ]
[15 13 10 11 10 13 10 9 14 14 11 13 12 13 13 13 13 14 11 14 14 8 11 12 12 0 12 7 11 10 14 12 12 9 12 11 12 13 12 14 ]
[12 12 7 10 8 11 9 9 10 11 7 10 11 9 10 8 11 13 8 11 12 10 10 9 10 8 0 7 12 9 9 10 12 6 10 11 10 10 11 12 ]
[16 16 11 13 13 16 12 10 15 14 14 13 14 14 14 10 13 15 13 16 16 12 13 11 13 13 13 0 15 10 14 15 13 12 14 15 16 14 12 12 ]
[10 10 6 10 8 9 8 7 9 8 8 7 7 10 6 8 9 11 9 13 11 8 11 8 8 9 8 5 0 8 7 9 7 4 10 9 9 9 9 7 ]
[13 14 9 10 10 12 13 12 14 9 10 12 14 13 10 9 12 13 12 11 15 10 12 12 13 10 11 10 12 0 11 13 12 11 11 14 11 12 11 13 ]
[13 14 9 9 11 11 10 10 13 9 9 9 11 11 11 7 11 14 8 12 12 8 10 11 12 6 11 6 13 9 0 10 10 7 11 9 11 11 11 14 ]
[11 11 9 10 7 11 8 7 11 11 8 8 9 10 12 7 7 12 8 11 12 6 8 7 11 8 10 5 11 7 10 0 9 7 9 11 9 10 10 9 ]
[11 14 4 7 7 10 8 7 12 10 9 9 10 8 10 7 7 13 6 11 14 7 8 8 9 8 8 7 13 8 10 11 0 7 12 10 8 9 10 11 ]
[13 15 11 12 12 14 11 10 12 14 14 13 14 11 11 13 14 15 13 15 15 10 14 12 10 11 14 8 16 9 13 13 13 0 13 15 13 10 14 12 ]
[11 13 8 9 10 12 9 7 12 9 6 9 11 12 10 9 10 14 10 10 13 7 9 8 9 8 10 6 10 9 9 11 8 7 0 11 10 8 11 8 ]
[10 10 8 10 9 13 10 11 14 11 11 9 11 9 8 10 7 13 10 12 12 8 8 10 7 9 9 5 11 6 11 9 10 5 9 0 11 9 9 12 ]
[12 11 9 7 7 11 10 9 11 12 10 8 8 9 10 8 7 12 9 10 13 5 4 11 8 8 10 4 11 9 9 11 12 7 10 9 0 7 10 11 ]
[12 8 7 11 11 13 8 7 12 11 11 10 9 9 9 9 9 13 8 13 12 7 9 9 10 7 10 6 11 8 9 10 11 10 12 11 13 0 10 10 ]
[13 15 8 10 9 9 10 9 11 12 8 12 13 12 9 9 11 14 9 8 12 12 8 9 11 8 9 8 11 9 9 10 10 6 9 11 10 10 0 12 ]
[12 11 7 11 10 12 11 11 10 10 8 8 10 9 10 7 8 10 9 10 10 6 8 7 9 6 8 8 13 7 6 11 9 8 12 8 9 10 8 0 ]
];
